nNurses = 176;
nHours = 29;
minHours = 5;
maxHours = 20;
maxConsec = 11;
maxPresence = 12;
demand = [35, 30, 27, 31, 30, 27, 25, 22, 24, 20, 16, 17, 13, 9, 8, 13, 17, 16, 13, 13, 14, 11, 13, 11, 12, 17, 16, 20, 22];
